Geometry = xyzFormat {
  <<< "packed_box.xyz"
}



Hamiltonian = xTB {
  Method = "GFN2-xTB"
}

Driver = VelocityVerlet {
  TimeStep [fs] = 0.5
  Thermostat = NoseHoover {
    Temperature [Kelvin] = TemperatureProfile {
  	constant      1    300.0
  	linear      499   800.0
  	constant    200   800.0
  	linear      500    300.0
	}
    CouplingStrength [cm^-1] = 3200
    }
  MovedAtoms = 1:-1
  MDRestartFrequency = 100
}
